
Gurobi 8.0.1 (win64, Python) logging started 03/10/20 21:06:21

Academic license - for non-commercial use only
Changed value of parameter Method to 0
   Prev: -1  Min: -1  Max: 5  Default: -1
Optimize a model with 42 rows, 43 columns and 84 nonzeros
Coefficient statistics:
  Matrix range     [3e-02, 3e+00]
  Objective range  [1e+00, 1e+00]
  Bounds range     [1e+00, 1e+00]
  RHS range        [1e+00, 1e+00]
Presolve removed 16 rows and 16 columns
Presolve time: 0.00s
Presolved: 26 rows, 27 columns, 52 nonzeros

Iteration    Objective       Primal Inf.    Dual Inf.      Time
       0    6.7045025e+01   0.000000e+00   3.204502e+01      0s
      18    3.1970800e+01   0.000000e+00   0.000000e+00      0s

Solved in 18 iterations and 0.01 seconds
Optimal objective  3.197080018e+01
Changed value of parameter Method to 1
   Prev: 0  Min: -1  Max: 5  Default: -1
Optimize a model with 42 rows, 44 columns and 126 nonzeros
Coefficient statistics:
  Matrix range     [3e-02, 3e+00]
  Objective range  [1e+00, 1e+00]
  Bounds range     [1e+00, 1e+00]
  RHS range        [1e+00, 1e+00]
Iteration    Objective       Primal Inf.    Dual Inf.      Time
       0    7.1684867e+00   1.155804e+01   0.000000e+00      0s
      21    2.1112871e+01   0.000000e+00   0.000000e+00      0s

Solved in 21 iterations and 0.00 seconds
Optimal objective  2.111287107e+01
Parameter Method unchanged
   Value: 1  Min: -1  Max: 5  Default: -1
Optimize a model with 42 rows, 45 columns and 168 nonzeros
Coefficient statistics:
  Matrix range     [3e-02, 3e+00]
  Objective range  [1e+00, 1e+00]
  Bounds range     [1e+00, 1e+00]
  RHS range        [1e+00, 1e+00]
Iteration    Objective       Primal Inf.    Dual Inf.      Time
       0   -1.0629517e+01   1.472263e+01   0.000000e+00      0s
      25    6.4736198e+00   0.000000e+00   0.000000e+00      0s

Solved in 25 iterations and 0.00 seconds
Optimal objective  6.473619755e+00
Parameter Method unchanged
   Value: 1  Min: -1  Max: 5  Default: -1
Optimize a model with 42 rows, 46 columns and 210 nonzeros
Coefficient statistics:
  Matrix range     [3e-02, 3e+00]
  Objective range  [1e+00, 1e+00]
  Bounds range     [1e+00, 1e+00]
  RHS range        [1e+00, 1e+00]
Iteration    Objective       Primal Inf.    Dual Inf.      Time
       0   -1.2167857e+01   6.432055e+00   0.000000e+00      0s
      21    1.9537902e+00   0.000000e+00   0.000000e+00      0s

Solved in 21 iterations and 0.00 seconds
Optimal objective  1.953790209e+00
Parameter Method unchanged
   Value: 1  Min: -1  Max: 5  Default: -1
Optimize a model with 42 rows, 47 columns and 252 nonzeros
Coefficient statistics:
  Matrix range     [3e-02, 3e+00]
  Objective range  [1e+00, 1e+00]
  Bounds range     [1e+00, 1e+00]
  RHS range        [1e+00, 1e+00]
Iteration    Objective       Primal Inf.    Dual Inf.      Time
       0   -7.3916125e+00   6.939336e+00   0.000000e+00      0s
      16    1.6118079e-01   0.000000e+00   0.000000e+00      0s

Solved in 16 iterations and 0.00 seconds
Optimal objective  1.611807904e-01
Parameter Method unchanged
   Value: 1  Min: -1  Max: 5  Default: -1
Optimize a model with 42 rows, 48 columns and 294 nonzeros
Coefficient statistics:
  Matrix range     [2e-02, 3e+00]
  Objective range  [1e+00, 1e+00]
  Bounds range     [1e+00, 1e+00]
  RHS range        [1e+00, 1e+00]
Iteration    Objective       Primal Inf.    Dual Inf.      Time
       0   -6.1149650e+00   1.013891e+01   0.000000e+00      0s
      10    0.0000000e+00   0.000000e+00   0.000000e+00      0s

Solved in 10 iterations and 0.00 seconds
Optimal objective  0.000000000e+00

Gurobi 8.0.1 (win64, Python) logging started 03/10/20 21:08:35

Academic license - for non-commercial use only
Changed value of parameter Method to 0
   Prev: -1  Min: -1  Max: 5  Default: -1
Optimize a model with 42 rows, 43 columns and 84 nonzeros
Coefficient statistics:
  Matrix range     [3e-02, 3e+00]
  Objective range  [1e+00, 1e+00]
  Bounds range     [1e+00, 1e+00]
  RHS range        [1e+00, 1e+00]
Presolve removed 16 rows and 16 columns
Presolve time: 0.00s
Presolved: 26 rows, 27 columns, 52 nonzeros

Iteration    Objective       Primal Inf.    Dual Inf.      Time
       0    6.7045025e+01   0.000000e+00   3.204502e+01      0s
      18    3.1970800e+01   0.000000e+00   0.000000e+00      0s

Solved in 18 iterations and 0.01 seconds
Optimal objective  3.197080018e+01
Changed value of parameter Method to 1
   Prev: 0  Min: -1  Max: 5  Default: -1
Optimize a model with 42 rows, 44 columns and 126 nonzeros
Coefficient statistics:
  Matrix range     [3e-02, 3e+00]
  Objective range  [1e+00, 1e+00]
  Bounds range     [1e+00, 1e+00]
  RHS range        [1e+00, 1e+00]
Iteration    Objective       Primal Inf.    Dual Inf.      Time
       0    7.1684867e+00   1.155804e+01   0.000000e+00      0s
      21    2.1112871e+01   0.000000e+00   0.000000e+00      0s

Solved in 21 iterations and 0.00 seconds
Optimal objective  2.111287107e+01
Parameter Method unchanged
   Value: 1  Min: -1  Max: 5  Default: -1
Optimize a model with 42 rows, 45 columns and 168 nonzeros
Coefficient statistics:
  Matrix range     [3e-02, 3e+00]
  Objective range  [1e+00, 1e+00]
  Bounds range     [1e+00, 1e+00]
  RHS range        [1e+00, 1e+00]
Iteration    Objective       Primal Inf.    Dual Inf.      Time
       0   -1.0629517e+01   1.472263e+01   0.000000e+00      0s
      25    6.4736198e+00   0.000000e+00   0.000000e+00      0s

Solved in 25 iterations and 0.00 seconds
Optimal objective  6.473619755e+00
Parameter Method unchanged
   Value: 1  Min: -1  Max: 5  Default: -1
Optimize a model with 42 rows, 46 columns and 210 nonzeros
Coefficient statistics:
  Matrix range     [3e-02, 3e+00]
  Objective range  [1e+00, 1e+00]
  Bounds range     [1e+00, 1e+00]
  RHS range        [1e+00, 1e+00]
Iteration    Objective       Primal Inf.    Dual Inf.      Time
       0   -1.2167857e+01   6.432055e+00   0.000000e+00      0s
      21    1.9537902e+00   0.000000e+00   0.000000e+00      0s

Solved in 21 iterations and 0.00 seconds
Optimal objective  1.953790209e+00
Parameter Method unchanged
   Value: 1  Min: -1  Max: 5  Default: -1
Optimize a model with 42 rows, 47 columns and 252 nonzeros
Coefficient statistics:
  Matrix range     [3e-02, 3e+00]
  Objective range  [1e+00, 1e+00]
  Bounds range     [1e+00, 1e+00]
  RHS range        [1e+00, 1e+00]
Iteration    Objective       Primal Inf.    Dual Inf.      Time
       0   -7.3916125e+00   6.939336e+00   0.000000e+00      0s
      16    1.6118079e-01   0.000000e+00   0.000000e+00      0s

Solved in 16 iterations and 0.00 seconds
Optimal objective  1.611807904e-01
Parameter Method unchanged
   Value: 1  Min: -1  Max: 5  Default: -1
Optimize a model with 42 rows, 48 columns and 294 nonzeros
Coefficient statistics:
  Matrix range     [2e-02, 3e+00]
  Objective range  [1e+00, 1e+00]
  Bounds range     [1e+00, 1e+00]
  RHS range        [1e+00, 1e+00]
Iteration    Objective       Primal Inf.    Dual Inf.      Time
       0   -6.1149650e+00   1.013891e+01   0.000000e+00      0s
      10    0.0000000e+00   0.000000e+00   0.000000e+00      0s

Solved in 10 iterations and 0.00 seconds
Optimal objective  0.000000000e+00

Gurobi 8.0.1 (win64, Python) logging started 03/10/20 21:12:42

Academic license - for non-commercial use only

Gurobi 8.0.1 (win64, Python) logging started 03/10/20 21:16:04

Academic license - for non-commercial use only
Changed value of parameter Method to 0
   Prev: -1  Min: -1  Max: 5  Default: -1
Optimize a model with 42 rows, 43 columns and 84 nonzeros
Coefficient statistics:
  Matrix range     [3e-02, 3e+00]
  Objective range  [1e+00, 1e+00]
  Bounds range     [1e+00, 1e+00]
  RHS range        [1e+00, 1e+00]
Presolve removed 16 rows and 16 columns
Presolve time: 0.00s
Presolved: 26 rows, 27 columns, 52 nonzeros

Iteration    Objective       Primal Inf.    Dual Inf.      Time
       0    6.7045025e+01   0.000000e+00   3.204502e+01      0s
      18    3.1970800e+01   0.000000e+00   0.000000e+00      0s

Solved in 18 iterations and 0.01 seconds
Optimal objective  3.197080018e+01
Changed value of parameter Method to 1
   Prev: 0  Min: -1  Max: 5  Default: -1
Optimize a model with 42 rows, 44 columns and 126 nonzeros
Coefficient statistics:
  Matrix range     [3e-02, 3e+00]
  Objective range  [1e+00, 1e+00]
  Bounds range     [1e+00, 1e+00]
  RHS range        [1e+00, 1e+00]
Iteration    Objective       Primal Inf.    Dual Inf.      Time
       0    7.1684867e+00   1.155804e+01   0.000000e+00      0s
      21    2.1112871e+01   0.000000e+00   0.000000e+00      0s

Solved in 21 iterations and 0.00 seconds
Optimal objective  2.111287107e+01
Parameter Method unchanged
   Value: 1  Min: -1  Max: 5  Default: -1
Optimize a model with 42 rows, 45 columns and 168 nonzeros
Coefficient statistics:
  Matrix range     [3e-02, 3e+00]
  Objective range  [1e+00, 1e+00]
  Bounds range     [1e+00, 1e+00]
  RHS range        [1e+00, 1e+00]
Iteration    Objective       Primal Inf.    Dual Inf.      Time
       0   -1.0629517e+01   1.472263e+01   0.000000e+00      0s
      25    6.4736198e+00   0.000000e+00   0.000000e+00      0s

Solved in 25 iterations and 0.00 seconds
Optimal objective  6.473619755e+00
Parameter Method unchanged
   Value: 1  Min: -1  Max: 5  Default: -1
Optimize a model with 42 rows, 46 columns and 210 nonzeros
Coefficient statistics:
  Matrix range     [3e-02, 3e+00]
  Objective range  [1e+00, 1e+00]
  Bounds range     [1e+00, 1e+00]
  RHS range        [1e+00, 1e+00]
Iteration    Objective       Primal Inf.    Dual Inf.      Time
       0   -1.2167857e+01   6.432055e+00   0.000000e+00      0s
      21    1.9537902e+00   0.000000e+00   0.000000e+00      0s

Solved in 21 iterations and 0.00 seconds
Optimal objective  1.953790209e+00
Parameter Method unchanged
   Value: 1  Min: -1  Max: 5  Default: -1
Optimize a model with 42 rows, 47 columns and 252 nonzeros
Coefficient statistics:
  Matrix range     [3e-02, 3e+00]
  Objective range  [1e+00, 1e+00]
  Bounds range     [1e+00, 1e+00]
  RHS range        [1e+00, 1e+00]
Iteration    Objective       Primal Inf.    Dual Inf.      Time
       0   -7.3916125e+00   6.939336e+00   0.000000e+00      0s
      16    1.6118079e-01   0.000000e+00   0.000000e+00      0s

Solved in 16 iterations and 0.00 seconds
Optimal objective  1.611807904e-01
Parameter Method unchanged
   Value: 1  Min: -1  Max: 5  Default: -1
Optimize a model with 42 rows, 48 columns and 294 nonzeros
Coefficient statistics:
  Matrix range     [2e-02, 3e+00]
  Objective range  [1e+00, 1e+00]
  Bounds range     [1e+00, 1e+00]
  RHS range        [1e+00, 1e+00]
Iteration    Objective       Primal Inf.    Dual Inf.      Time
       0   -6.1149650e+00   1.013891e+01   0.000000e+00      0s
      10    0.0000000e+00   0.000000e+00   0.000000e+00      0s

Solved in 10 iterations and 0.00 seconds
Optimal objective  0.000000000e+00

Gurobi 8.0.1 (win64, Python) logging started 03/10/20 21:19:18

Academic license - for non-commercial use only
Changed value of parameter Method to 1
   Prev: -1  Min: -1  Max: 5  Default: -1
Changed value of parameter Crossover to 0
   Prev: -1  Min: -1  Max: 5  Default: -1
Optimize a model with 42 rows, 55 columns and 588 nonzeros
Coefficient statistics:
  Matrix range     [2e-02, 3e+00]
  Objective range  [1e+00, 1e+00]
  Bounds range     [1e+00, 1e+00]
  RHS range        [1e+00, 1e+00]
Presolve time: 0.00s
Presolved: 42 rows, 55 columns, 588 nonzeros

Iteration    Objective       Primal Inf.    Dual Inf.      Time
       0    0.0000000e+00   2.339722e+01   0.000000e+00      0s
      10    0.0000000e+00   0.000000e+00   0.000000e+00      0s

Solved in 10 iterations and 0.01 seconds
Optimal objective  0.000000000e+00

Gurobi 8.0.1 (win64, Python) logging started 03/10/20 21:22:13

Academic license - for non-commercial use only
Changed value of parameter Method to 1
   Prev: -1  Min: -1  Max: 5  Default: -1
Changed value of parameter Crossover to 0
   Prev: -1  Min: -1  Max: 5  Default: -1
Optimize a model with 42 rows, 55 columns and 588 nonzeros
Coefficient statistics:
  Matrix range     [2e-02, 3e+00]
  Objective range  [1e+00, 1e+00]
  Bounds range     [1e+00, 1e+00]
  RHS range        [1e+00, 1e+00]
Presolve time: 0.00s
Presolved: 42 rows, 55 columns, 588 nonzeros

Iteration    Objective       Primal Inf.    Dual Inf.      Time
       0    0.0000000e+00   2.339722e+01   0.000000e+00      0s
      10    0.0000000e+00   0.000000e+00   0.000000e+00      0s

Solved in 10 iterations and 0.01 seconds
Optimal objective  0.000000000e+00

Gurobi 8.0.1 (win64, Python) logging started 03/10/20 21:47:49

Academic license - for non-commercial use only
Changed value of parameter Method to 0
   Prev: -1  Min: -1  Max: 5  Default: -1
Optimize a model with 42 rows, 43 columns and 84 nonzeros
Coefficient statistics:
  Matrix range     [3e-02, 3e+00]
  Objective range  [1e+00, 1e+00]
  Bounds range     [1e+00, 1e+00]
  RHS range        [1e+00, 1e+00]
Presolve removed 16 rows and 16 columns
Presolve time: 0.00s
Presolved: 26 rows, 27 columns, 52 nonzeros

Iteration    Objective       Primal Inf.    Dual Inf.      Time
       0    6.7045025e+01   0.000000e+00   3.204502e+01      0s
      18    3.1970800e+01   0.000000e+00   0.000000e+00      0s

Solved in 18 iterations and 0.01 seconds
Optimal objective  3.197080018e+01
Changed value of parameter Method to 1
   Prev: 0  Min: -1  Max: 5  Default: -1
Optimize a model with 42 rows, 44 columns and 126 nonzeros
Coefficient statistics:
  Matrix range     [3e-02, 3e+00]
  Objective range  [1e+00, 1e+00]
  Bounds range     [1e+00, 1e+00]
  RHS range        [1e+00, 1e+00]
Iteration    Objective       Primal Inf.    Dual Inf.      Time
       0    7.1684867e+00   1.155804e+01   0.000000e+00      0s
      21    2.1112871e+01   0.000000e+00   0.000000e+00      0s

Solved in 21 iterations and 0.00 seconds
Optimal objective  2.111287107e+01
Parameter Method unchanged
   Value: 1  Min: -1  Max: 5  Default: -1
Optimize a model with 42 rows, 45 columns and 168 nonzeros
Coefficient statistics:
  Matrix range     [3e-02, 3e+00]
  Objective range  [1e+00, 1e+00]
  Bounds range     [1e+00, 1e+00]
  RHS range        [1e+00, 1e+00]
Iteration    Objective       Primal Inf.    Dual Inf.      Time
       0   -1.0629517e+01   1.472263e+01   0.000000e+00      0s
      25    6.4736198e+00   0.000000e+00   0.000000e+00      0s

Solved in 25 iterations and 0.00 seconds
Optimal objective  6.473619755e+00
Parameter Method unchanged
   Value: 1  Min: -1  Max: 5  Default: -1
Optimize a model with 42 rows, 46 columns and 210 nonzeros
Coefficient statistics:
  Matrix range     [3e-02, 3e+00]
  Objective range  [1e+00, 1e+00]
  Bounds range     [1e+00, 1e+00]
  RHS range        [1e+00, 1e+00]
Iteration    Objective       Primal Inf.    Dual Inf.      Time
       0   -1.2167857e+01   6.432055e+00   0.000000e+00      0s
      21    1.9537902e+00   0.000000e+00   0.000000e+00      0s

Solved in 21 iterations and 0.00 seconds
Optimal objective  1.953790209e+00
Parameter Method unchanged
   Value: 1  Min: -1  Max: 5  Default: -1
Optimize a model with 42 rows, 47 columns and 252 nonzeros
Coefficient statistics:
  Matrix range     [3e-02, 3e+00]
  Objective range  [1e+00, 1e+00]
  Bounds range     [1e+00, 1e+00]
  RHS range        [1e+00, 1e+00]
Iteration    Objective       Primal Inf.    Dual Inf.      Time
       0   -7.3916125e+00   6.939336e+00   0.000000e+00      0s
      16    1.6118079e-01   0.000000e+00   0.000000e+00      0s

Solved in 16 iterations and 0.00 seconds
Optimal objective  1.611807904e-01
Parameter Method unchanged
   Value: 1  Min: -1  Max: 5  Default: -1
Optimize a model with 42 rows, 48 columns and 294 nonzeros
Coefficient statistics:
  Matrix range     [2e-02, 3e+00]
  Objective range  [1e+00, 1e+00]
  Bounds range     [1e+00, 1e+00]
  RHS range        [1e+00, 1e+00]
Iteration    Objective       Primal Inf.    Dual Inf.      Time
       0   -6.1149650e+00   1.013891e+01   0.000000e+00      0s
      10    0.0000000e+00   0.000000e+00   0.000000e+00      0s

Solved in 10 iterations and 0.00 seconds
Optimal objective  0.000000000e+00

Gurobi 8.0.1 (win64, Python) logging started 03/10/20 21:48:15

Academic license - for non-commercial use only

Gurobi 8.0.1 (win64, Python) logging started 03/10/20 21:48:39

Academic license - for non-commercial use only
Changed value of parameter Method to 1
   Prev: -1  Min: -1  Max: 5  Default: -1
Changed value of parameter Crossover to 0
   Prev: -1  Min: -1  Max: 5  Default: -1
Optimize a model with 42 rows, 55 columns and 588 nonzeros
Coefficient statistics:
  Matrix range     [2e-02, 3e+00]
  Objective range  [1e+00, 1e+00]
  Bounds range     [1e+00, 1e+00]
  RHS range        [1e+00, 1e+00]
Presolve time: 0.00s
Presolved: 42 rows, 55 columns, 588 nonzeros

Iteration    Objective       Primal Inf.    Dual Inf.      Time
       0    0.0000000e+00   2.339722e+01   0.000000e+00      0s
      10    0.0000000e+00   0.000000e+00   0.000000e+00      0s

Solved in 10 iterations and 0.00 seconds
Optimal objective  0.000000000e+00

Gurobi 8.0.1 (win64, Python) logging started 03/10/20 21:52:31

Academic license - for non-commercial use only
Changed value of parameter Method to 0
   Prev: -1  Min: -1  Max: 5  Default: -1
Optimize a model with 42 rows, 43 columns and 84 nonzeros
Coefficient statistics:
  Matrix range     [3e-02, 3e+00]
  Objective range  [1e+00, 1e+00]
  Bounds range     [1e+00, 1e+00]
  RHS range        [1e+00, 1e+00]
Presolve removed 16 rows and 16 columns
Presolve time: 0.00s
Presolved: 26 rows, 27 columns, 52 nonzeros

Iteration    Objective       Primal Inf.    Dual Inf.      Time
       0    6.7045025e+01   0.000000e+00   3.204502e+01      0s
      18    3.1970800e+01   0.000000e+00   0.000000e+00      0s

Solved in 18 iterations and 0.01 seconds
Optimal objective  3.197080018e+01
Changed value of parameter Method to 1
   Prev: 0  Min: -1  Max: 5  Default: -1
Optimize a model with 42 rows, 44 columns and 126 nonzeros
Coefficient statistics:
  Matrix range     [3e-02, 3e+00]
  Objective range  [1e+00, 1e+00]
  Bounds range     [1e+00, 1e+00]
  RHS range        [1e+00, 1e+00]
Iteration    Objective       Primal Inf.    Dual Inf.      Time
       0    7.1684867e+00   1.155804e+01   0.000000e+00      0s
      21    2.1112871e+01   0.000000e+00   0.000000e+00      0s

Solved in 21 iterations and 0.00 seconds
Optimal objective  2.111287107e+01
Parameter Method unchanged
   Value: 1  Min: -1  Max: 5  Default: -1
Optimize a model with 42 rows, 45 columns and 168 nonzeros
Coefficient statistics:
  Matrix range     [3e-02, 3e+00]
  Objective range  [1e+00, 1e+00]
  Bounds range     [1e+00, 1e+00]
  RHS range        [1e+00, 1e+00]
Iteration    Objective       Primal Inf.    Dual Inf.      Time
       0   -1.0629517e+01   1.472263e+01   0.000000e+00      0s
      25    6.4736198e+00   0.000000e+00   0.000000e+00      0s

Solved in 25 iterations and 0.00 seconds
Optimal objective  6.473619755e+00
Parameter Method unchanged
   Value: 1  Min: -1  Max: 5  Default: -1
Optimize a model with 42 rows, 46 columns and 210 nonzeros
Coefficient statistics:
  Matrix range     [3e-02, 3e+00]
  Objective range  [1e+00, 1e+00]
  Bounds range     [1e+00, 1e+00]
  RHS range        [1e+00, 1e+00]
Iteration    Objective       Primal Inf.    Dual Inf.      Time
       0   -1.2167857e+01   6.432055e+00   0.000000e+00      0s
      21    1.9537902e+00   0.000000e+00   0.000000e+00      0s

Solved in 21 iterations and 0.00 seconds
Optimal objective  1.953790209e+00
Parameter Method unchanged
   Value: 1  Min: -1  Max: 5  Default: -1
Optimize a model with 42 rows, 47 columns and 252 nonzeros
Coefficient statistics:
  Matrix range     [3e-02, 3e+00]
  Objective range  [1e+00, 1e+00]
  Bounds range     [1e+00, 1e+00]
  RHS range        [1e+00, 1e+00]
Iteration    Objective       Primal Inf.    Dual Inf.      Time
       0   -7.3916125e+00   6.939336e+00   0.000000e+00      0s
      16    1.6118079e-01   0.000000e+00   0.000000e+00      0s

Solved in 16 iterations and 0.00 seconds
Optimal objective  1.611807904e-01
Parameter Method unchanged
   Value: 1  Min: -1  Max: 5  Default: -1
Optimize a model with 42 rows, 48 columns and 294 nonzeros
Coefficient statistics:
  Matrix range     [2e-02, 3e+00]
  Objective range  [1e+00, 1e+00]
  Bounds range     [1e+00, 1e+00]
  RHS range        [1e+00, 1e+00]
Iteration    Objective       Primal Inf.    Dual Inf.      Time
       0   -6.1149650e+00   1.013891e+01   0.000000e+00      0s
      10    0.0000000e+00   0.000000e+00   0.000000e+00      0s

Solved in 10 iterations and 0.00 seconds
Optimal objective  0.000000000e+00
